p wcnf 195 390 391 
1 113 -125 0 
1 -11 -69 0 
1 123 172 0 
1 132 115 0 
1 6 -88 0 
1 176 123 0 
1 -124 -121 0 
1 120 -173 0 
1 -142 -172 0 
1 -55 100 0 
1 -155 168 0 
1 -61 123 0 
1 62 -145 0 
1 -33 19 0 
1 -163 -19 0 
1 109 -51 0 
1 170 80 0 
1 178 182 0 
1 -39 -126 0 
1 -192 102 0 
1 103 38 0 
1 -88 -163 0 
1 -117 7 0 
1 -131 100 0 
1 -51 102 0 
1 -113 -136 0 
1 -145 -30 0 
1 -188 155 0 
1 175 76 0 
1 -109 61 0 
1 95 61 0 
1 29 145 0 
1 -100 136 0 
1 -19 -165 0 
1 80 182 0 
1 -191 86 0 
1 52 -40 0 
1 -124 -164 0 
1 63 -96 0 
1 55 57 0 
1 79 141 0 
1 23 30 0 
1 124 -131 0 
1 -123 -126 0 
1 189 67 0 
1 188 50 0 
1 70 -13 0 
1 2 43 0 
1 184 160 0 
1 -21 164 0 
1 -111 102 0 
1 195 81 0 
1 -121 -84 0 
1 174 -151 0 
1 189 -76 0 
1 175 80 0 
1 -112 -89 0 
1 -40 -186 0 
1 69 82 0 
1 4 93 0 
1 -194 129 0 
1 132 28 0 
1 -161 -91 0 
1 -153 95 0 
1 192 -164 0 
1 -36 -90 0 
1 32 -195 0 
1 -44 -64 0 
1 24 117 0 
1 34 -165 0 
1 -30 1 0 
1 -54 47 0 
1 37 78 0 
1 142 -178 0 
1 -171 -51 0 
1 35 114 0 
1 144 -188 0 
1 41 -5 0 
1 22 -128 0 
1 -173 66 0 
1 -142 38 0 
1 75 89 0 
1 101 -175 0 
1 168 163 0 
1 -56 67 0 
1 -110 -9 0 
1 -1 102 0 
1 -8 150 0 
1 8 76 0 
1 -5 -138 0 
1 190 -9 0 
1 -62 33 0 
1 82 -17 0 
1 -91 169 0 
1 31 -183 0 
1 -8 -115 0 
1 -155 -28 0 
1 -147 113 0 
1 -92 -149 0 
1 -67 -149 0 
1 53 -83 0 
1 173 -137 0 
1 -115 140 0 
1 41 -82 0 
1 95 80 0 
1 77 -9 0 
1 177 -94 0 
1 113 170 0 
1 47 151 0 
1 -39 140 0 
1 163 -36 0 
1 -151 90 0 
1 -188 -185 0 
1 146 169 0 
1 -159 127 0 
1 -169 7 0 
1 88 -130 0 
1 53 -89 0 
1 -9 149 0 
1 193 -126 0 
1 -109 -54 0 
1 132 150 0 
1 -11 -168 0 
1 179 -91 0 
1 135 -8 0 
1 -69 85 0 
1 -115 -178 0 
1 -96 -80 0 
1 -58 -95 0 
1 2 -51 0 
1 -79 -177 0 
1 15 -195 0 
1 49 26 0 
1 -120 -166 0 
1 -145 95 0 
1 3 51 0 
1 153 -69 0 
1 -71 -123 0 
1 175 -33 0 
1 -11 -156 0 
1 40 -42 0 
1 14 33 0 
1 168 164 0 
1 -180 148 0 
1 67 -159 0 
1 -129 -4 0 
1 108 -82 0 
1 -14 193 0 
1 121 127 0 
1 -79 1 0 
1 43 -179 0 
1 -74 28 0 
1 35 -193 0 
1 -20 -182 0 
1 129 104 0 
1 55 95 0 
1 186 73 0 
1 -8 -143 0 
1 20 159 0 
1 -1 -106 0 
1 152 -129 0 
1 -85 -184 0 
1 169 186 0 
1 66 -12 0 
1 -49 -55 0 
1 -14 131 0 
1 109 -182 0 
1 -21 -113 0 
1 150 155 0 
1 -17 -156 0 
1 -148 -122 0 
1 -42 -31 0 
1 129 97 0 
1 -6 51 0 
1 129 119 0 
1 -76 95 0 
1 -163 128 0 
1 148 -118 0 
1 105 -176 0 
1 18 143 0 
1 -42 -13 0 
1 -145 97 0 
1 -90 66 0 
1 102 -124 0 
1 111 -42 0 
1 -20 147 0 
1 23 -2 0 
1 51 156 0 
1 62 -99 0 
1 68 -18 0 
1 121 -102 0 
1 -68 104 0 
1 -99 5 0 
1 -99 8 0 
1 97 2 0 
1 68 160 0 
1 -114 86 0 
1 -171 -41 0 
1 -87 109 0 
1 132 -58 0 
1 104 -48 0 
1 27 -111 0 
1 89 -76 0 
1 191 -40 0 
1 83 18 0 
1 -40 63 0 
1 172 147 0 
1 195 53 0 
1 -61 -162 0 
1 -104 21 0 
1 -69 101 0 
1 -41 -129 0 
1 159 -149 0 
1 -5 93 0 
1 -70 -94 0 
1 194 -195 0 
1 123 -41 0 
1 63 181 0 
1 -191 -158 0 
1 29 114 0 
1 57 3 0 
1 -167 163 0 
1 -40 -47 0 
1 -126 -103 0 
1 96 151 0 
1 29 -193 0 
1 55 -7 0 
1 103 -121 0 
1 75 141 0 
1 138 -127 0 
1 -175 188 0 
1 90 143 0 
1 -159 -80 0 
1 -79 -130 0 
1 -12 -119 0 
1 -114 149 0 
1 -78 145 0 
1 -40 7 0 
1 -132 -155 0 
1 -95 143 0 
1 28 89 0 
1 -99 -102 0 
1 -45 -104 0 
1 119 -33 0 
1 49 63 0 
1 101 -184 0 
1 -95 112 0 
1 14 -68 0 
1 -169 59 0 
1 -89 58 0 
1 -66 -10 0 
1 -115 137 0 
1 -48 -99 0 
1 -15 58 0 
1 -57 -81 0 
1 -80 173 0 
1 174 171 0 
1 -37 -171 0 
1 192 -89 0 
1 -42 -193 0 
1 -11 44 0 
1 105 135 0 
1 -48 -34 0 
1 -172 48 0 
1 165 -81 0 
1 -137 113 0 
1 46 -131 0 
1 177 -178 0 
1 -1 -28 0 
1 93 171 0 
1 122 -178 0 
1 -79 -71 0 
1 45 -54 0 
1 50 105 0 
1 -95 -29 0 
1 26 -47 0 
1 -195 -153 0 
1 165 -151 0 
1 -153 68 0 
1 93 -156 0 
1 163 31 0 
1 -103 -53 0 
1 152 -42 0 
1 19 118 0 
1 26 -143 0 
1 -66 -162 0 
1 -157 -55 0 
1 171 80 0 
1 -101 132 0 
1 189 -86 0 
1 54 -131 0 
1 -28 -110 0 
1 -100 -39 0 
1 -60 59 0 
1 -43 -91 0 
1 -95 80 0 
1 8 -67 0 
1 166 57 0 
1 -79 86 0 
1 83 -183 0 
1 -144 -89 0 
1 -183 -59 0 
1 -89 -173 0 
1 112 -66 0 
1 71 141 0 
1 170 152 0 
1 -175 113 0 
1 61 -114 0 
1 -79 122 0 
1 -69 133 0 
1 100 127 0 
1 22 -90 0 
1 -13 -16 0 
1 49 -175 0 
1 -24 -103 0 
1 129 -192 0 
1 24 17 0 
1 -65 -193 0 
1 58 -81 0 
1 4 -117 0 
1 73 -79 0 
1 78 -59 0 
1 171 81 0 
1 -130 -104 0 
1 21 143 0 
1 13 -12 0 
1 -170 20 0 
1 -195 -110 0 
1 129 -81 0 
1 -59 -68 0 
1 -127 58 0 
1 77 -69 0 
1 -157 -11 0 
1 132 -175 0 
1 -26 -59 0 
1 -2 121 0 
1 122 144 0 
1 115 173 0 
1 -176 -161 0 
1 18 28 0 
1 170 -103 0 
1 -4 149 0 
1 94 25 0 
1 90 -78 0 
1 41 -182 0 
1 104 -98 0 
1 123 -11 0 
1 104 -18 0 
1 61 114 0 
1 175 19 0 
1 140 -78 0 
1 -156 -7 0 
1 122 -105 0 
1 81 104 0 
1 170 83 0 
1 -36 47 0 
1 162 -52 0 
1 152 72 0 
1 187 -126 0 
1 64 -180 0 
1 -89 -118 0 
1 -165 -64 0 
1 125 108 0 
1 182 -161 0 
1 37 113 0 
1 -177 -139 0 
1 -89 -45 0 
1 63 171 0 
1 40 100 0 
1 100 -179 0 
1 -76 73 0 
1 -157 -15 0 
1 194 152 0 
1 -119 77 0 
1 7 -70 0 
1 -173 -104 0 
1 3 -149 0 
1 -76 157 0 
1 121 -97 0 
1 -56 118 0 
1 -127 185 0 
1 113 55 0 
1 -100 -8 0 
1 -90 -18 0 
1 50 -69 0 
1 -21 -153 0 
1 -97 -30 0 
1 121 158 0 
1 -89 35 0 
1 -73 89 0 
